SAT
2 59 70 35 83 -98 -65 -64 76 -68 -21 -33 -82 -79 -38 -80 -10 39 -3 -40 -36 -60 -23 -49 85 -12 97 -72 50 -8 -95 -9 48 22 -5 41 -99 18 -62 11 -32 86 -6 -28 66 -81 -78 24 -26 -54 93 -14 -100 -44 30 53 1 45 -75 88 -13 16 4 58 -63 17 96 56 89 -90 67 -19 94 -51 57 31 -43 -91 -20 -15 -47 71 74 34 -73 -69 87 -7 -77 -55 -29 -84 -37 -61 27 -92 -52 -46 42 25 0
